FoodBank.lp
\ Model Food_Bank
\ LP format - for model browsing. Use MPS format to capture full model detail.
Minimize
  1.533 dt_1_1_1 + 1.533 dt_1_1_2 + 1.533 dt_1_2_1 + 1.533 dt_1_2_2
   + 1.533 dt_1_3_1 + 1.533 dt_1_3_2 + 1.533 dt_1_4_1 + 1.533 dt_1_4_2 + [
   0.114848 aFP_1_1 * fFP_1_1 + 0.114848 aFP_1_2 * fFP_1_2
   + 0.114848 aFP_1_3 * fFP_1_3 + 0.114848 aFP_1_4 * fFP_1_4
   + 376.81504 nT_1_1 * fFP_1_1 + 477.97344 nT_1_2 * fFP_1_2
   + 647.41376 nT_1_3 * fFP_1_3 + 854.7884799999999 nT_1_4 * fFP_1_4
   + 0.34966 dt_1_1 * dt_1_1_1 + 0.34966 dt_1_2 * dt_1_1_2
   + 0.34966 dt_2_1 * dt_1_2_1 + 0.34966 dt_2_2 * dt_1_2_2
   + 0.34966 dt_3_1 * dt_1_3_1 + 0.34966 dt_3_2 * dt_1_3_2
   + 0.34966 dt_4_1 * dt_1_4_1 + 0.34966 dt_4_2 * dt_1_4_2 ] / 2 
Subject To
 F1_sendsFood_Pj: x_1_1 + x_1_2 + x_1_3 + x_1_4 >= 1
 P1_receiveFood_Fi: x_1_1 <= 1
 P2_receiveFood_Fi: x_1_2 <= 1
 P3_receiveFood_Fi: x_1_3 <= 1
 P4_receiveFood_Fi: x_1_4 <= 1
 P1_sendsFood_Zk: y_1_1 + y_1_2 <= 1
 P2_sendsFood_Zk: y_2_1 + y_2_2 <= 1
 P3_sendsFood_Zk: y_3_1 + y_3_2 <= 1
 P4_sendsFood_Zk: y_4_1 + y_4_2 <= 1
 Z1_receiveFood_Pj: y_1_1 + y_2_1 + y_3_1 + y_4_1 >= 1
 Z2_receiveFood_Pj: y_1_2 + y_2_2 + y_3_2 + y_4_2 >= 1
 R11: - 1e+16 y_1_1 + dt_1_1 <= 0
 R12: - 1e+16 y_1_2 + dt_1_2 <= 0
 R13: - 1e+16 y_2_1 + dt_2_1 <= 0
 R14: - 1e+16 y_2_2 + dt_2_2 <= 0
 R15: - 1e+16 y_3_1 + dt_3_1 <= 0
 R16: - 1e+16 y_3_2 + dt_3_2 <= 0
 R17: - 1e+16 y_4_1 + dt_4_1 <= 0
 R18: - 1e+16 y_4_2 + dt_4_2 <= 0
 R19: - 1e+16 x_1_1 + aFP_1_1 <= 0
 R20: - 1e+16 x_1_2 + aFP_1_2 <= 0
 R21: - 1e+16 x_1_3 + aFP_1_3 <= 0
 R22: - 1e+16 x_1_4 + aFP_1_4 <= 0
 R23: aFP_1_1 + aFP_1_2 + aFP_1_3 + aFP_1_4 <= 1e+16
 R24: aFP_1_1 <= 97460
 R25: aFP_1_2 <= 86405
 R26: aFP_1_3 <= 75591
 R27: aFP_1_4 <= 69098
 R28: - 1e+16 y_1_1 + aPZ_1_1 <= 0
 R29: - 1e+16 y_1_2 + aPZ_1_2 <= 0
 R30: - 1e+16 y_2_1 + aPZ_2_1 <= 0
 R31: - 1e+16 y_2_2 + aPZ_2_2 <= 0
 R32: - 1e+16 y_3_1 + aPZ_3_1 <= 0
 R33: - 1e+16 y_3_2 + aPZ_3_2 <= 0
 R34: - 1e+16 y_4_1 + aPZ_4_1 <= 0
 R35: - 1e+16 y_4_2 + aPZ_4_2 <= 0
 R36: - 1e+16 x_1_1 + ort_1_1 <= 0
 R37: - 1e+16 x_1_2 + ort_1_2 <= 0
 R38: - 1e+16 x_1_3 + ort_1_3 <= 0
 R39: - 1e+16 x_1_4 + ort_1_4 <= 0
 R40: - aFP_1_1 + 45000 nT_1_1 >= 0
 R41: - aFP_1_2 + 45000 nT_1_2 >= 0
 R42: - aFP_1_3 + 45000 nT_1_3 >= 0
 R43: - aFP_1_4 + 45000 nT_1_4 >= 0
 R44: nT_1_1 + nT_1_2 + nT_1_3 + nT_1_4 <= 1e+13
 R45: - 1e+16 nT_1_1 + fFP_1_1 <= 0
 R46: - 1e+16 nT_1_2 + fFP_1_2 <= 0
 R47: - 1e+16 nT_1_3 + fFP_1_3 <= 0
 R48: - 1e+16 nT_1_4 + fFP_1_4 <= 0
 R49: - 2.709677419354839 y_1_1 + wt_1_1 = 0
 R50: - 3.32258064516129 y_1_2 + wt_1_2 = 0
 R51: - 4.354838709677419 y_2_1 + wt_2_1 = 0
 R52: - 5.258064516129032 y_2_2 + wt_2_2 = 0
 R53: - 6.161290322580645 y_3_1 + wt_3_1 = 0
 R54: - 6.774193548387097 y_3_2 + wt_3_2 = 0
 R55: - 10.74193548387097 y_4_1 + wt_4_1 = 0
 R56: - 10.41935483870968 y_4_2 + wt_4_2 = 0
 R57: - 0.0008 aFP_1_1 + ut_1_1 = 0
 R58: - 0.0008 aFP_1_2 + ut_1_2 = 0
 R59: - 0.0008 aFP_1_3 + ut_1_3 = 0
 R60: - 0.0008 aFP_1_4 + ut_1_4 = 0
 R61: - 1.192 x_1_1 + tt_1_1 = 0
 R62: - 1.512 x_1_2 + tt_1_2 = 0
 R63: - 2.048 x_1_3 + tt_1_3 = 0
 R64: - 2.704 x_1_4 + tt_1_4 = 0
 R65: - ort_1_1 + opt_1_1 + tt_1_1 <= 0
 R66: - ort_1_2 + opt_1_2 + tt_1_2 <= 0
 R67: - ort_1_3 + opt_1_3 + tt_1_3 <= 0
 R68: - ort_1_4 + opt_1_4 + tt_1_4 <= 0
 R69: opt_1_1 - wt_1_1 - wt_1_2 - ut_1_1 >= 0
 R70: opt_1_2 - wt_2_1 - wt_2_2 - ut_1_2 >= 0
 R71: opt_1_3 - wt_3_1 - wt_3_2 - ut_1_3 >= 0
 R72: opt_1_4 - wt_4_1 - wt_4_2 - ut_1_4 >= 0
 R73: - 1e+16 x_1_1 + opt_1_1 <= 0
 R74: - 1e+16 x_1_2 + opt_1_2 <= 0
 R75: - 1e+16 x_1_3 + opt_1_3 <= 0
 R76: - 1e+16 x_1_4 + opt_1_4 <= 0
 qc0: 936.9094583333335 ort_1_1 - 936.9094583333335 dt_1_1 + [
   - y_1_1 * aPZ_1_1 ] >= 0
 qc1: 586.2588333333334 ort_1_1 - 586.2588333333334 dt_1_2 + [
   - y_1_2 * aPZ_1_2 ] >= 0
 qc2: 936.9094583333335 ort_1_2 - 936.9094583333335 dt_2_1 + [
   - y_2_1 * aPZ_2_1 ] >= 0
 qc3: 586.2588333333334 ort_1_2 - 586.2588333333334 dt_2_2 + [
   - y_2_2 * aPZ_2_2 ] >= 0
 qc4: 936.9094583333335 ort_1_3 - 936.9094583333335 dt_3_1 + [
   - y_3_1 * aPZ_3_1 ] >= 0
 qc5: 586.2588333333334 ort_1_3 - 586.2588333333334 dt_3_2 + [
   - y_3_2 * aPZ_3_2 ] >= 0
 qc6: 936.9094583333335 ort_1_4 - 936.9094583333335 dt_4_1 + [
   - y_4_1 * aPZ_4_1 ] >= 0
 qc7: 586.2588333333334 ort_1_4 - 586.2588333333334 dt_4_2 + [
   - y_4_2 * aPZ_4_2 ] >= 0
 qc8: - wt_1_1 + dt_1_1 + [ - y_1_1 * ut_1_1 ] >= 0
 qc9: - wt_1_2 + dt_1_2 + [ - y_1_2 * ut_1_1 ] >= 0
 qc10: - wt_2_1 + dt_2_1 + [ - y_2_1 * ut_1_2 ] >= 0
 qc11: - wt_2_2 + dt_2_2 + [ - y_2_2 * ut_1_2 ] >= 0
 qc12: - wt_3_1 + dt_3_1 + [ - y_3_1 * ut_1_3 ] >= 0
 qc13: - wt_3_2 + dt_3_2 + [ - y_3_2 * ut_1_3 ] >= 0
 qc14: - wt_4_1 + dt_4_1 + [ - y_4_1 * ut_1_4 ] >= 0
 qc15: - wt_4_2 + dt_4_2 + [ - y_4_2 * ut_1_4 ] >= 0
 qc16: - aPZ_1_1 - aPZ_1_2 + [ aFP_1_1 * fFP_1_1 ] = 0
 qc17: - aPZ_2_1 - aPZ_2_2 + [ aFP_1_2 * fFP_1_2 ] = 0
 qc18: - aPZ_3_1 - aPZ_3_2 + [ aFP_1_3 * fFP_1_3 ] = 0
 qc19: - aPZ_4_1 - aPZ_4_2 + [ aFP_1_4 * fFP_1_4 ] = 0
 qc20: aPZ_1_1 + aPZ_2_1 + aPZ_3_1 + aPZ_4_1 + [
   - 936.9094583333335 y_1_1 * ort_1_1 ] >= 0
 qc21: aPZ_1_2 + aPZ_2_2 + aPZ_3_2 + aPZ_4_2 + [
   - 586.2588333333334 y_1_2 * ort_1_1 ] >= 0
 qc22: aPZ_1_1 + aPZ_2_1 + aPZ_3_1 + aPZ_4_1 + [
   - 936.9094583333335 y_2_1 * ort_1_2 ] >= 0
 qc23: aPZ_1_2 + aPZ_2_2 + aPZ_3_2 + aPZ_4_2 + [
   - 586.2588333333334 y_2_2 * ort_1_2 ] >= 0
 qc24: aPZ_1_1 + aPZ_2_1 + aPZ_3_1 + aPZ_4_1 + [
   - 936.9094583333335 y_3_1 * ort_1_3 ] >= 0
 qc25: aPZ_1_2 + aPZ_2_2 + aPZ_3_2 + aPZ_4_2 + [
   - 586.2588333333334 y_3_2 * ort_1_3 ] >= 0
 qc26: aPZ_1_1 + aPZ_2_1 + aPZ_3_1 + aPZ_4_1 + [
   - 936.9094583333335 y_4_1 * ort_1_4 ] >= 0
 qc27: aPZ_1_2 + aPZ_2_2 + aPZ_3_2 + aPZ_4_2 + [
   - 586.2588333333334 y_4_2 * ort_1_4 ] >= 0
 qc28: - 240 x_1_1 + [ ort_1_1 * fFP_1_1 ] = 0
 qc29: - 240 x_1_2 + [ ort_1_2 * fFP_1_2 ] = 0
 qc30: - 240 x_1_3 + [ ort_1_3 * fFP_1_3 ] = 0
 qc31: - 240 x_1_4 + [ ort_1_4 * fFP_1_4 ] = 0
 qc32: dt_1_1_1 + [ - dt_1_1 * fFP_1_1 ] = 0
 qc33: dt_1_1_2 + [ - dt_1_2 * fFP_1_1 ] = 0
 qc34: dt_1_2_1 + [ - dt_2_1 * fFP_1_2 ] = 0
 qc35: dt_1_2_2 + [ - dt_2_2 * fFP_1_2 ] = 0
 qc36: dt_1_3_1 + [ - dt_3_1 * fFP_1_3 ] = 0
 qc37: dt_1_3_2 + [ - dt_3_2 * fFP_1_3 ] = 0
 qc38: dt_1_4_1 + [ - dt_4_1 * fFP_1_4 ] = 0
 qc39: dt_1_4_2 + [ - dt_4_2 * fFP_1_4 ] = 0
Bounds
Binaries
 x_1_1 x_1_2 x_1_3 x_1_4 y_1_1 y_1_2 y_2_1 y_2_2 y_3_1 y_3_2 y_4_1 y_4_2
Generals
 nT_1_1 nT_1_2 nT_1_3 nT_1_4 fFP_1_1 fFP_1_2 fFP_1_3 fFP_1_4
End
