FoodBank.sol
# Solution for model Food_Bank
# Objective value = 1.0218108205243008e+04
x_1_1 1
x_1_2 1
x_1_3 1
x_1_4 1
y_1_1 1
y_1_2 0
y_2_1 1
y_2_2 0
y_3_1 0
y_3_2 1
y_4_1 0
y_4_2 1
aFP_1_1 4.1745167327973586e+03
aFP_1_2 2071.5463227582
aFP_1_3 1.0101534308795644e+04
aFP_1_4 5.5320345800932455e+03
aPZ_1_1 2.5047100396784146e+04
aPZ_2_1 1.2429277936549197e+04
aPZ_3_1 0
aPZ_4_1 0
aPZ_1_2 0
aPZ_2_2 0
aPZ_3_2 3.0304602926386935e+04
aPZ_4_2 1.6596103740279737e+04
nT_1_1 1
nT_1_2 1
nT_1_3 1
nT_1_4 1
ort_1_1 40
ort_1_2 40
ort_1_3 80
ort_1_4 80
opt_1_1 6.0492908055927259e+00
opt_1_2 6.0120757678839789e+00
opt_1_3 1.4855420995423614e+01
opt_1_4 1.4844982502784273e+01
tt_1_1 1.192
tt_1_2 1.5119999999999998e+00
tt_1_3 2.048
tt_1_4 2.7039999999999997e+00
wt_1_1 2.7096774193548390e+00
wt_1_2 0
wt_2_1 4.3548387096774190e+00
wt_2_2 0
wt_3_1 0
wt_3_2 6.7741935483870970e+00
wt_4_1 0
wt_4_2 1.0419354838709676e+01
dt_1_1 6.0492908055927206e+00
dt_1_2 0
dt_2_1 6.0120757678839833e+00
dt_2_2 0
dt_3_1 0
dt_3_2 1.4855685358381608e+01
dt_4_1 0
dt_4_2 1.4844982502784276e+01
ut_1_1 3.3396133862378869e+00
ut_1_2 1.65723705820656
ut_1_3 8.0812274470365164e+00
ut_1_4 4.4256276640745966e+00
fFP_1_1 6
fFP_1_2 6
fFP_1_3 3
fFP_1_4 3
dt_1_1_1 3.6295744833556320e+01
dt_1_1_2 0
dt_1_2_1 36.0724546073039
dt_1_2_2 0
dt_1_3_1 0
dt_1_3_2 4.4567056075144826e+01
dt_1_4_1 0
dt_1_4_2 4.4534947508352829e+01
